--- Job gams_0064_002_32_04_0.67_05_0.25_0.90_17_problem.txt Start 02/24/21 19:59:16 35.2.0 r33388c4 WEX-WEI x86 64bit/MS Windows
--- Applying:
    C:\Users\MariaSosnovskaya\GAMS35\gmsprmNT.txt
--- GAMS Parameters defined
    Input C:\Users\MariaSosnovskaya\Downloads\WfmGams3\problems\gams_0064_002_32_04_0.67_05_0.25_0.90_17_problem.txt
    ScrDir C:\Users\MariaSosnovskaya\Downloads\WfmGams3\225h\
    SysDir C:\Users\MariaSosnovskaya\GAMS35\
Licensee: GAMS Evaluation License                        S210124/0001AB-GEN
          Sobolev Institute of Mathematics, Discrete Optimization LaDCE1098
          C:\Users\MariaSosnovskaya\GAMS35\gamslice.txt
          Evaluation license: Not for commercial or production use
GAMS 35.2.0   Copyright (C) 1987-2021 GAMS Development. All rights reserved
--- Starting compilation
--- gams_0064_002_32_04_0.67_05_0.25_0.90_17_problem.txt(22) 3 Mb
--- . gams_0064_002_32_04_0.67_05_0.25_0.90_17.inc(6600) 3 Mb
--- gams_0064_002_32_04_0.67_05_0.25_0.90_17_problem.txt(98) 3 Mb
--- Starting execution: elapsed 0:00:00.044
--- gams_0064_002_32_04_0.67_05_0.25_0.90_17_problem.txt(6621) 4 Mb
--- Generating MIP model mymodel
--- gams_0064_002_32_04_0.67_05_0.25_0.90_17_problem.txt(6677) 9 Mb
---   16,769 rows  12,289 columns  56,193 non-zeroes
---   12,288 discrete-columns
--- Executing CPLEX (Solvelink=2): elapsed 0:00:00.166

IBM ILOG CPLEX   35.2.0 r33388c4 Released Jun 02, 2021 WEI x86 64bit/MS Window

--- GAMS/Cplex licensed for continuous and discrete problems.
--- Space for names approximately 0.61 Mb
--- Use option 'names no' to turn use of names off
--- GMO memory 6.31 Mb (peak 6.40 Mb)
--- Dictionary memory 0.00 Mb
--- Cplex 20.1.0.1 link memory 0.43 Mb (peak 1.98 Mb)
--- Starting Cplex

Version identifier: 20.1.0.1 | 2021-04-07 | 3a818710c
CPXPARAM_Advance                                 0
CPXPARAM_Threads                                 1
CPXPARAM_MIP_Display                             4
CPXPARAM_TimeLimit                               3600
CPXPARAM_MIP_Tolerances_AbsMIPGap                0
Generic callback                                 0x50
Tried aggregator 2 times.
MIP Presolve eliminated 8321 rows and 1026 columns.
Aggregator did 192 substitutions.
Reduced MIP has 8256 rows, 11072 columns, and 37282 nonzeros.
Reduced MIP has 11072 binaries, 0 generals, 0 SOSs, and 0 indicators.
Presolve time = 0.06 sec. (41.92 ticks)
Probing fixed 944 vars, tightened 0 bounds.
Probing changed sense of 60 constraints.
Probing time = 0.09 sec. (29.45 ticks)
Tried aggregator 16 times.
MIP Presolve eliminated 480 rows and 1004 columns.
Aggregator did 480 substitutions.
Reduced MIP has 7296 rows, 9588 columns, and 32454 nonzeros.
Reduced MIP has 9588 binaries, 0 generals, 0 SOSs, and 0 indicators.
Presolve time = 0.67 sec. (311.83 ticks)
Probing time = 0.00 sec. (4.35 ticks)
Tried aggregator 1 time.
Detecting symmetries...
Reduced MIP has 7296 rows, 9588 columns, and 32454 nonzeros.
Reduced MIP has 9588 binaries, 0 generals, 0 SOSs, and 0 indicators.
Presolve time = 0.06 sec. (28.99 ticks)
Probing time = 0.01 sec. (4.35 ticks)
Clique table members: 23873.
MIP emphasis: balance optimality and feasibility.
MIP search method: dynamic search.
Parallel mode: none, using 1 thread.
Tried aggregator 1 time.
No LP presolve or aggregator reductions.
Presolve time = 0.00 sec. (4.23 ticks)
Initializing dual steep norms . . .

Iteration log . . .
Iteration:     1   Dual objective     =          8765.000000
Perturbation started.
Iteration:   101   Dual objective     =          8765.000000
Iteration:   463   Dual objective     =          8764.999852
Iteration:   818   Dual objective     =          8764.999748
Iteration:  1177   Dual objective     =          8764.999627
Iteration:  1542   Dual objective     =          8764.999497
Iteration:  1924   Dual objective     =          8764.999348
Iteration:  2269   Dual objective     =          8764.999265
Iteration:  2601   Dual objective     =          8764.999223
Iteration:  2925   Dual objective     =          8764.999194
Iteration:  3248   Dual objective     =          8764.999168
Iteration:  3553   Dual objective     =          8764.999143
Iteration:  3854   Dual objective     =          8764.999123
Iteration:  4139   Dual objective     =          8764.999107
Iteration:  4413   Dual objective     =          8764.999092
Iteration:  4674   Dual objective     =          8764.999079
Iteration:  4912   Dual objective     =          8764.999067
Iteration:  5125   Dual objective     =          8764.999059
Iteration:  5346   Dual objective     =          8764.999050
Iteration:  5529   Dual objective     =          8764.999044
Iteration:  5707   Dual objective     =          8764.999037
Iteration:  5874   Dual objective     =          8764.999031
Iteration:  6052   Dual objective     =          8764.999024
Iteration:  6194   Dual objective     =          8764.999019
Iteration:  6340   Dual objective     =          8764.999014
Iteration:  6485   Dual objective     =          8764.999008
Iteration:  6625   Dual objective     =          8764.999003
Iteration:  6766   Dual objective     =          8764.998999
Iteration:  6904   Dual objective     =          8764.998995
Iteration:  7037   Dual objective     =          8764.998993
Iteration:  7172   Dual objective     =          8764.998990
Iteration:  7296   Dual objective     =          8764.998989
Iteration:  7413   Dual objective     =          8764.998987
Iteration:  7523   Dual objective     =          8764.998986
Iteration:  7635   Dual objective     =          8764.998985
Iteration:  7749   Dual objective     =          8764.998985
Removing perturbation.

Iteration log . . .
Iteration:     1   Dual objective     =          8765.000000
Root relaxation solution time = 1.04 sec. (532.68 ticks)

        Nodes                                         Cuts/
   Node  Left     Objective  IInf  Best Integer    Best Bound    ItCnt     Gap

      0     0     8765.0000  1507                   8765.0000     7784         
      0     0     8765.0000   706                    Cuts: 12     8592         
      0     0     8765.0000   773                    Cuts: 85    10046         
      0     0     8765.0000   330                 ZeroHalf: 8    10125         
      0     0     8765.0000   241                    Cuts: 31    10851         
      0     0     8765.0000   289                    Cuts: 63    11392         
*     0+    0                         8759.0000     8765.0000             0.07%
Found incumbent of value 8759.000000 after 12.95 sec. (8256.87 ticks)
*     0+    0                         8761.0000     8765.0000             0.05%
Found incumbent of value 8761.000000 after 13.32 sec. (8469.15 ticks)
*     0+    0                         8762.0000     8765.0000             0.03%
Found incumbent of value 8762.000000 after 13.46 sec. (8542.47 ticks)
      0     0        cutoff           8762.0000     8765.0000    11435    0.03%
      0     2     8765.0000   287     8762.0000     8765.0000    11660    0.03%
Elapsed time = 13.56 sec. (8594.21 ticks, tree = 0.01 MB, solutions = 3)
      2     4     8764.0000   697     8762.0000     8765.0000    14508    0.03%
     10    12     8765.0000   317     8762.0000     8765.0000    16603    0.03%
     20    22     8765.0000   269     8762.0000     8765.0000    18661    0.03%
     38    40     8765.0000   361     8762.0000     8765.0000    22892    0.03%
     49    51     8765.0000   388     8762.0000     8765.0000    27765    0.03%
     60    62     8765.0000   565     8762.0000     8765.0000    32896    0.03%
     71    73     8765.0000   307     8762.0000     8765.0000    35149    0.03%
     76    78     8765.0000   502     8762.0000     8765.0000    39026    0.03%
     77    79     8765.0000   374     8762.0000     8765.0000    40274    0.03%
     80    82     8765.0000    65     8762.0000     8765.0000    42667    0.03%
Elapsed time = 21.34 sec. (13431.08 ticks, tree = 0.99 MB, solutions = 3)
     89    91     8764.0000   189     8762.0000     8765.0000    49698    0.03%
     98   100     8764.0000   486     8762.0000     8765.0000    59903    0.03%
    133   135     8764.0000   670     8762.0000     8765.0000    67527    0.03%
    169   171     8764.0000   149     8762.0000     8765.0000    76314    0.03%
    215   217     8764.0000   219     8762.0000     8765.0000    90877    0.03%
    255   255        cutoff           8762.0000     8765.0000   106579    0.03%
    259   259     8764.0000   598     8762.0000     8765.0000   113370    0.03%
    268   268     8764.0000   246     8762.0000     8765.0000   122688    0.03%
    275   275     8764.0000   827     8762.0000     8765.0000   130444    0.03%
    280   280     8764.0000   252     8762.0000     8765.0000   136273    0.03%
Elapsed time = 41.76 sec. (25770.89 ticks, tree = 5.70 MB, solutions = 3)
    293   293     8764.0000   223     8762.0000     8765.0000   143238    0.03%
    297   297     8764.0000   583     8762.0000     8765.0000   150188    0.03%
    303   303     8764.0000   529     8762.0000     8765.0000   157754    0.03%
    317   317     8764.0000   472     8762.0000     8765.0000   168792    0.03%
    328   328     8764.0000   598     8762.0000     8765.0000   177599    0.03%
    358   358     8764.0000   529     8762.0000     8765.0000   193479    0.03%
    367   367     8764.0000   428     8762.0000     8765.0000   201385    0.03%
    376   376     8764.0000   452     8762.0000     8765.0000   211991    0.03%
    386   386     8764.0000   569     8762.0000     8765.0000   226603    0.03%
    399   399     8764.0000   638     8762.0000     8765.0000   236788    0.03%
Elapsed time = 60.54 sec. (37012.39 ticks, tree = 7.72 MB, solutions = 3)
    410   410     8764.0000   606     8762.0000     8765.0000   249833    0.03%
    414   414     8764.0000   555     8762.0000     8765.0000   255866    0.03%
    430   430     8764.0000   668     8762.0000     8765.0000   271600    0.03%
    437   437     8764.0000   498     8762.0000     8765.0000   279664    0.03%
    445   445     8764.0000   331     8762.0000     8765.0000   289330    0.03%
    448   448     8764.0000   606     8762.0000     8765.0000   296667    0.03%
    455   455     8764.0000   446     8762.0000     8765.0000   302850    0.03%
    465   465     8764.0000   415     8762.0000     8765.0000   314414    0.03%
    470   470     8764.0000   403     8762.0000     8765.0000   319392    0.03%
    472   472     8764.0000   464     8762.0000     8765.0000   329239    0.03%
Elapsed time = 80.98 sec. (49426.89 ticks, tree = 9.71 MB, solutions = 3)
    476   476     8764.0000   422     8762.0000     8765.0000   336104    0.03%
    479   479     8764.0000   359     8762.0000     8765.0000   342186    0.03%
    480   480     8764.0000   350     8762.0000     8765.0000   344411    0.03%
    482   482     8764.0000   351     8762.0000     8765.0000   350621    0.03%
*   483+    1                         8765.0000     8765.0000             0.00%
Found incumbent of value 8765.000000 after 88.51 sec. (54115.44 ticks)

Zero-half cuts applied:  81
Gomory fractional cuts applied:  13

Root node processing (before b&c):
  Real time             =   13.48 sec. (8556.21 ticks)
Sequential b&c:
  Real time             =   75.05 sec. (45563.54 ticks)
                          ------------
Total (root+branch&cut) =   88.53 sec. (54119.75 ticks)

--- MIP status (101): integer optimal solution.
--- Cplex Time: 88.53sec (det. 54119.78 ticks)

--- Fixing integer variables and solving final LP...

Version identifier: 20.1.0.1 | 2021-04-07 | 3a818710c
CPXPARAM_Advance                                 2
CPXPARAM_Threads                                 1
CPXPARAM_MIP_Display                             4
CPXPARAM_TimeLimit                               3600
CPXPARAM_MIP_Tolerances_AbsMIPGap                0
Tried aggregator 1 time.
LP Presolve eliminated 16769 rows and 12290 columns.
All rows and columns eliminated.
Presolve time = 0.02 sec. (7.09 ticks)

--- Fixed MIP status (1): optimal.
--- Cplex Time: 0.02sec (det. 12.42 ticks)


Proven optimal solution
MIP Solution:         8765.000000    (351801 iterations, 483 nodes)
Final Solve:          8765.000000    (0 iterations)

Best possible:        8765.000000
Absolute gap:            0.000000
Relative gap:            0.000000

--- Reading solution for model mymodel
--- Executing after solve: elapsed 0:01:28.887
--- gams_0064_002_32_04_0.67_05_0.25_0.90_17_problem.txt(6678) 9 Mb--- gams_0064_002_32_04_0.67_05_0.25_0.90_17_problem.txt(6698) 9 Mb
--- Putfile results C:\Users\MariaSosnovskaya\Downloads\WfmGams3\problems\gams_0064_002_32_04_0.67_05_0.25_0.90_17_results.txt
*** Status: Normal completion
--- Job gams_0064_002_32_04_0.67_05_0.25_0.90_17_problem.txt Stop 02/24/21 20:00:45 elapsed 0:01:28.907
